; PUSH cw_5 DUP1 PUSH cw_6 PUSH 0x12 PUSH 0xff AND => PUSH cw_5 PUSH cw_5 PUSH cw_6 PUSH 0x12
(set-option :produce-proofs true)
; 
(set-info :status unknown)
(declare-fun storage_t ((_ BitVec 256) (_ BitVec 256) Int (_ BitVec 256)) (_ BitVec 256))
(declare-fun w_6 () (_ BitVec 256))
(declare-fun w_5 () (_ BitVec 256))
(declare-fun storage_s ((_ BitVec 256) (_ BitVec 256) Int (_ BitVec 256)) (_ BitVec 256))
(declare-fun exc_halt_t (Int) Bool)
(declare-fun exc_halt_s (Int) Bool)
(declare-fun sc_t (Int) (_ BitVec 6))
(declare-fun stack_t ((_ BitVec 256) (_ BitVec 256) Int (_ BitVec 6)) (_ BitVec 256))
(declare-fun stack_s ((_ BitVec 256) (_ BitVec 256) Int (_ BitVec 6)) (_ BitVec 256))
(declare-fun sc_s (Int) (_ BitVec 6))
(declare-fun used_gas_t ((_ BitVec 256) (_ BitVec 256) Int) Int)
(declare-fun used_gas_s ((_ BitVec 256) (_ BitVec 256) Int) Int)
(assert
 (let (($x4599 (forall ((w (_ BitVec 256)) )(let ((?x1152 (storage_t w_5 w_6 4 w)))
 (let ((?x2739 (storage_s w_5 w_6 6 w)))
 (= ?x2739 ?x1152))))
 ))
 (let (($x7854 (exc_halt_t 4)))
 (let (($x772 (exc_halt_s 6)))
 (let (($x4404 (= $x772 $x7854)))
 (let (($x6498 (forall ((n (_ BitVec 6)) )(let ((?x4818 (sc_t 4)))
 (let (($x5190 (bvsle ?x4818 n)))
 (let ((?x10538 (stack_t w_5 w_6 4 n)))
 (let ((?x925 (stack_s w_5 w_6 6 n)))
 (let (($x1482 (= ?x925 ?x10538)))
 (or $x1482 $x5190)))))))
 ))
 (let ((?x4818 (sc_t 4)))
 (let ((?x926 (sc_s 6)))
 (let (($x7899 (= ?x926 ?x4818)))
 (let ((?x9411 (used_gas_t w_5 w_6 0)))
 (let ((?x129 (used_gas_s w_5 w_6 0)))
 (let (($x7648 (= ?x129 ?x9411)))
 (let (($x9194 (forall ((w (_ BitVec 256)) )(let ((?x11565 (storage_t w_5 w_6 0 w)))
 (let ((?x2528 (storage_s w_5 w_6 0 w)))
 (= ?x2528 ?x11565))))
 ))
 (let (($x56 (exc_halt_t 0)))
 (let (($x57 (exc_halt_s 0)))
 (let (($x58 (= $x57 $x56)))
 (let (($x5282 (forall ((n (_ BitVec 6)) )(let ((?x9920 (stack_t w_5 w_6 0 n)))
 (let ((?x11759 (stack_s w_5 w_6 0 n)))
 (let (($x6636 (= ?x11759 ?x9920)))
 (let ((?x63 (sc_t 0)))
 (let (($x4912 (bvsle ?x63 n)))
 (or $x4912 $x6636)))))))
 ))
 (let ((?x63 (sc_t 0)))
 (let ((?x72 (sc_s 0)))
 (let (($x73 (= ?x72 ?x63)))
 (let (($x10437 (not (= ((_ extract 6 6) (bvadd (_ bv1 7) (concat (_ bv0 1) (sc_t 3)))) (_ bv0 1)))))
 (let (($x3614 (exc_halt_t 3)))
 (let (($x848 (= $x7854 (or $x3614 $x10437))))
 (let (($x10336 (forall ((w (_ BitVec 256)) )(let ((?x7593 (storage_t w_5 w_6 3 w)))
 (let ((?x1152 (storage_t w_5 w_6 4 w)))
 (= ?x1152 ?x7593))))
 ))
 (let (($x4460 (forall ((n (_ BitVec 6)) )(let ((?x11304 (sc_t 3)))
 (let (($x2531 (bvsle ?x11304 n)))
 (or $x2531 (= (stack_t w_5 w_6 4 n) (stack_t w_5 w_6 3 n))))))
 ))
 (let (($x1860 (= ?x4818 (bvadd (_ bv1 6) (sc_t 3)))))
 (let (($x9589 (= (used_gas_t w_5 w_6 4) (+ 3 (used_gas_t w_5 w_6 3)))))
 (let (($x11677 (not (= ((_ extract 6 6) (bvadd (_ bv1 7) (concat (_ bv0 1) (sc_t 2)))) (_ bv0 1)))))
 (let (($x4045 (exc_halt_t 2)))
 (let (($x10875 (forall ((w (_ BitVec 256)) )(let ((?x1223 (storage_t w_5 w_6 2 w)))
 (let ((?x7593 (storage_t w_5 w_6 3 w)))
 (= ?x7593 ?x1223))))
 ))
 (let (($x2994 (forall ((n (_ BitVec 6)) )(let ((?x6158 (sc_t 2)))
 (let (($x9370 (bvsle ?x6158 n)))
 (or (= (stack_t w_5 w_6 3 n) (stack_t w_5 w_6 2 n)) $x9370))))
 ))
 (let ((?x11304 (sc_t 3)))
 (let (($x10509 (= ?x11304 (bvadd (_ bv1 6) (sc_t 2)))))
 (let ((?x2153 (used_gas_t w_5 w_6 3)))
 (let (($x9648 (not (= ((_ extract 6 6) (bvadd (_ bv1 7) (concat (_ bv0 1) (sc_t 1)))) (_ bv0 1)))))
 (let (($x8377 (exc_halt_t 1)))
 (let (($x7807 (= $x4045 (or $x8377 $x9648))))
 (let (($x3899 (forall ((w (_ BitVec 256)) )(let ((?x8845 (storage_t w_5 w_6 1 w)))
 (let ((?x1223 (storage_t w_5 w_6 2 w)))
 (= ?x1223 ?x8845))))
 ))
 (let (($x8813 (forall ((n (_ BitVec 6)) )(let ((?x7154 (sc_t 1)))
 (let (($x3152 (bvsle ?x7154 n)))
 (or (= (stack_t w_5 w_6 2 n) (stack_t w_5 w_6 1 n)) $x3152))))
 ))
 (let ((?x6158 (sc_t 2)))
 (let (($x912 (= ?x6158 (bvadd (_ bv1 6) (sc_t 1)))))
 (let ((?x3289 (used_gas_t w_5 w_6 2)))
 (let (($x10020 (= $x8377 (or $x56 (not (= ((_ extract 6 6) (bvadd (_ bv1 7) (concat (_ bv0 1) ?x63))) (_ bv0 1)))))))
 (let (($x11269 (forall ((w (_ BitVec 256)) )(let ((?x11565 (storage_t w_5 w_6 0 w)))
 (let ((?x8845 (storage_t w_5 w_6 1 w)))
 (= ?x8845 ?x11565))))
 ))
 (let (($x10905 (forall ((n (_ BitVec 6)) )(let ((?x63 (sc_t 0)))
 (let (($x4912 (bvsle ?x63 n)))
 (or (= (stack_t w_5 w_6 1 n) (stack_t w_5 w_6 0 n)) $x4912))))
 ))
 (let ((?x7154 (sc_t 1)))
 (let (($x4376 (= ?x7154 (bvadd (_ bv1 6) ?x63))))
 (let (($x725 (= $x772 (or (exc_halt_s 5) (not (bvsle (_ bv0 6) (bvadd (_ bv62 6) (sc_s 5))))))))
 (let (($x4905 (forall ((w (_ BitVec 256)) )(let ((?x9729 (storage_s w_5 w_6 5 w)))
 (let ((?x2739 (storage_s w_5 w_6 6 w)))
 (= ?x2739 ?x9729))))
 ))
 (let (($x7515 (forall ((n (_ BitVec 6)) )(let ((?x4319 (sc_s 5)))
 (let ((?x4237 (bvadd (_ bv62 6) ?x4319)))
 (let (($x715 (bvsle ?x4237 n)))
 (or $x715 (= (stack_s w_5 w_6 6 n) (stack_s w_5 w_6 5 n)))))))
 ))
 (let ((?x4319 (sc_s 5)))
 (let ((?x8736 (bvadd (_ bv63 6) ?x4319)))
 (let (($x5411 (= ?x926 ?x8736)))
 (let (($x6349 (= (used_gas_s w_5 w_6 6) (+ 3 (used_gas_s w_5 w_6 5)))))
 (let ((?x4250 (bvor (bvnot (stack_s w_5 w_6 5 ?x8736)) (bvnot (stack_s w_5 w_6 5 (bvadd (_ bv62 6) ?x4319))))))
 (let (($x9801 (not (= ((_ extract 6 6) (bvadd (_ bv1 7) (concat (_ bv0 1) (sc_s 4)))) (_ bv0 1)))))
 (let (($x7172 (exc_halt_s 4)))
 (let (($x11317 (exc_halt_s 5)))
 (let (($x6199 (= $x11317 (or $x7172 $x9801))))
 (let (($x3335 (forall ((w (_ BitVec 256)) )(let ((?x5738 (storage_s w_5 w_6 4 w)))
 (let ((?x9729 (storage_s w_5 w_6 5 w)))
 (= ?x9729 ?x5738))))
 ))
 (let (($x7314 (forall ((n (_ BitVec 6)) )(let ((?x4305 (sc_s 4)))
 (let (($x5372 (bvsle ?x4305 n)))
 (or $x5372 (= (stack_s w_5 w_6 5 n) (stack_s w_5 w_6 4 n))))))
 ))
 (let (($x8769 (= ?x4319 (bvadd (_ bv1 6) (sc_s 4)))))
 (let ((?x5375 (used_gas_s w_5 w_6 5)))
 (let (($x292 (exc_halt_s 3)))
 (let (($x2443 (or $x292 (not (= ((_ extract 6 6) (bvadd (_ bv1 7) (concat (_ bv0 1) (sc_s 3)))) (_ bv0 1))))))
 (let (($x5189 (= $x7172 $x2443)))
 (let (($x8245 (forall ((w (_ BitVec 256)) )(let ((?x7274 (storage_s w_5 w_6 3 w)))
 (let ((?x5738 (storage_s w_5 w_6 4 w)))
 (= ?x5738 ?x7274))))
 ))
 (let (($x9593 (forall ((n (_ BitVec 6)) )(let ((?x275 (sc_s 3)))
 (let (($x6610 (bvsle ?x275 n)))
 (or (= (stack_s w_5 w_6 4 n) (stack_s w_5 w_6 3 n)) $x6610))))
 ))
 (let ((?x4305 (sc_s 4)))
 (let (($x5010 (= ?x4305 (bvadd (_ bv1 6) (sc_s 3)))))
 (let ((?x7324 (used_gas_s w_5 w_6 4)))
 (let (($x9803 (not (= ((_ extract 6 6) (bvadd (_ bv1 7) (concat (_ bv0 1) (sc_s 2)))) (_ bv0 1)))))
 (let (($x247 (exc_halt_s 2)))
 (let (($x4286 (= $x292 (or $x247 $x9803))))
 (let (($x713 (forall ((w (_ BitVec 256)) )(let ((?x5648 (storage_s w_5 w_6 2 w)))
 (let ((?x7274 (storage_s w_5 w_6 3 w)))
 (= ?x7274 ?x5648))))
 ))
 (let (($x5672 (forall ((n (_ BitVec 6)) )(let ((?x218 (sc_s 2)))
 (let (($x1048 (bvsle ?x218 n)))
 (or (= (stack_s w_5 w_6 3 n) (stack_s w_5 w_6 2 n)) $x1048))))
 ))
 (let ((?x275 (sc_s 3)))
 (let (($x2806 (= ?x275 (bvadd (_ bv1 6) (sc_s 2)))))
 (let ((?x5315 (used_gas_s w_5 w_6 3)))
 (let (($x9102 (not (= ((_ extract 6 6) (bvadd (_ bv1 7) (concat (_ bv0 1) (sc_s 1)))) (_ bv0 1)))))
 (let (($x3365 (not (bvsle (_ bv0 6) (bvadd (_ bv63 6) (sc_s 1))))))
 (let (($x189 (exc_halt_s 1)))
 (let (($x9130 (= $x247 (or $x189 $x3365 $x9102))))
 (let (($x4928 (forall ((w (_ BitVec 256)) )(let ((?x10315 (storage_s w_5 w_6 1 w)))
 (let ((?x5648 (storage_s w_5 w_6 2 w)))
 (= ?x5648 ?x10315))))
 ))
 (let (($x11584 (forall ((n (_ BitVec 6)) )(let ((?x154 (sc_s 1)))
 (let ((?x11015 (bvadd (_ bv63 6) ?x154)))
 (let (($x4063 (bvsle ?x11015 n)))
 (or $x4063 (= (stack_s w_5 w_6 2 n) (stack_s w_5 w_6 1 n)))))))
 ))
 (let ((?x218 (sc_s 2)))
 (let (($x4816 (= ?x218 (bvadd (_ bv1 6) (sc_s 1)))))
 (let ((?x1751 (used_gas_s w_5 w_6 2)))
 (let ((?x154 (sc_s 1)))
 (let ((?x11015 (bvadd (_ bv63 6) ?x154)))
 (let ((?x3107 (stack_s w_5 w_6 1 ?x11015)))
 (let (($x7475 (= $x189 (or $x57 (not (= ((_ extract 6 6) (bvadd (_ bv1 7) (concat (_ bv0 1) ?x72))) (_ bv0 1)))))))
 (let (($x6401 (forall ((w (_ BitVec 256)) )(let ((?x2528 (storage_s w_5 w_6 0 w)))
 (let ((?x10315 (storage_s w_5 w_6 1 w)))
 (= ?x10315 ?x2528))))
 ))
 (let (($x9376 (forall ((n (_ BitVec 6)) )(let ((?x72 (sc_s 0)))
 (let (($x7944 (bvsle ?x72 n)))
 (or (= (stack_s w_5 w_6 1 n) (stack_s w_5 w_6 0 n)) $x7944))))
 ))
 (let (($x3586 (= ?x154 (bvadd (_ bv1 6) ?x72))))
 (let (($x6978 (forall ((w (_ BitVec 256)) )(let ((?x2528 (storage_s w_5 w_6 0 w)))
 (= ?x2528 (_ bv0 256))))
 ))
 (let (($x6711 (= ?x129 0)))
 (let (($x2084 (not $x57)))
 (let (($x10600 (= ?x72 (_ bv0 6))))
 (and $x10600 $x2084 $x6711 $x6978 (= (stack_s w_5 w_6 1 ?x72) w_5) (= (used_gas_s w_5 w_6 1) (+ 3 ?x129)) $x3586 $x9376 $x6401 $x7475 (= (stack_s w_5 w_6 2 (bvadd (_ bv63 6) ?x218)) ?x3107) (= (stack_s w_5 w_6 2 ?x11015) ?x3107) (= ?x1751 (+ 3 (used_gas_s w_5 w_6 1))) $x4816 $x11584 $x4928 $x9130 (= (stack_s w_5 w_6 3 ?x218) w_6) (= ?x5315 (+ 3 ?x1751)) $x2806 $x5672 $x713 $x4286 (= (stack_s w_5 w_6 4 ?x275) (_ bv18 256)) (= ?x7324 (+ 3 ?x5315)) $x5010 $x9593 $x8245 $x5189 (= (stack_s w_5 w_6 5 ?x4305) (_ bv255 256)) (= ?x5375 (+ 3 ?x7324)) $x8769 $x7314 $x3335 $x6199 (= (stack_s w_5 w_6 6 (bvadd (_ bv63 6) ?x926)) (bvnot ?x4250)) $x6349 $x5411 $x7515 $x4905 $x725 (= (stack_t w_5 w_6 1 ?x63) w_5) (= (used_gas_t w_5 w_6 1) (+ 3 ?x9411)) $x4376 $x10905 $x11269 $x10020 (= (stack_t w_5 w_6 2 ?x7154) w_5) (= ?x3289 (+ 3 (used_gas_t w_5 w_6 1))) $x912 $x8813 $x3899 $x7807 (= (stack_t w_5 w_6 3 ?x6158) w_6) (= ?x2153 (+ 3 ?x3289)) $x10509 $x2994 $x10875 (= $x3614 (or $x4045 $x11677)) (= (stack_t w_5 w_6 4 ?x11304) (_ bv18 256)) $x9589 $x1860 $x4460 $x10336 $x848 $x73 $x5282 $x58 $x9194 $x7648 (not (and $x7899 $x6498 $x4404 $x4599))))))))))))))))))))))))))))))))))))))))))))))))))))))))))))))))))))))))))))))))))))))))))))))))))))))
(check-sat)
(get-proof)
